50
    1     1    39
    2   185   216
    3   619   578
    4   204   191
    5   290   348
    6   506   461
    7   419   429
    8   528   479
    9   118    85
   10   173   126
   11   262   235
   12   493   519
   13   588   588
   14   270   296
   15   520   492
   16   285   296
   17   211   213
   18   381   372
   19   528   529
   20   392   370
   21   187   165
   22   617   587
   23   190   196
   24   499   530
   25   336   308
   26    90    76
   27   499   466
   28   281   299
   29   213   237
   30   323   355
   31   127    73
   32    25    55
   33   457   499
   34   515   537
   35    13    68
   36   292   237
   37   240   284
   38   296   312
   39   528   508
   40   578   570
   41   239   287
   42   381   373
   43   491   494
   44   299   241
   45   463   415
   46   532   526
   47   294   265
   48   543   549
   49    67     7
   50   373   412
601
